1
71
2	4	0	1	0	6	0
2	2	0	2	0	1	0
4	4	0	3	1	1	0
2	2	0	4	0	1	0
2	2	0	5	0	1	0
2	2	0	6	0	1	0
2	2	0	7	2	1	0
2	2	0	8	0	1	0
2	2	0	9	3	1	0
2	2	0	10	4	1	0
2	2	0	11	5	1	0
2	2	0	12	0	1	0
2	2	0	13	0	1	0
2	2	0	14	5	1	0
2	2	0	15	0	1	0
2	2	0	8	0	2	0
2	2	0	16	11	2	0
2	2	0	17	0	2	0
2	2	0	14	5	2	0
2	2	0	15	0	2	0
2	2	0	6	0	2	0
2	2	0	18	0	2	0
2	2	0	10	4	2	0
4	4	0	19	12	2	0
2	2	0	7	2	2	0
2	2	0	4	0	2	0
2	2	0	20	13	2	0
2	2	0	25	0	2	0
2	2	0	12	0	2	0
2	2	0	15	0	3	0
2	2	0	2	0	3	0
2	2	0	12	0	3	0
2	4	0	22	0	3	0
2	2	0	6	0	3	0
2	2	0	7	2	3	0
2	2	0	13	0	3	0
2	2	0	23	7	3	0
4	4	0	24	8	3	0
2	2	0	8	0	3	0
2	2	0	14	9	3	0
2	2	0	25	0	3	0
2	2	0	4	0	3	0
2	2	0	12	0	4	0
2	2	0	7	2	4	0
2	2	0	6	0	4	0
2	2	0	17	0	4	0
4	4	0	25	10	4	0
2	2	0	4	0	4	0
2	2	0	13	0	4	0
2	2	0	8	0	4	0
2	2	0	26	7	4	0
2	2	0	27	12	4	0
2	2	0	5	0	4	0
2	2	0	15	0	4	0
2	2	0	32	11	4	0
2	2	0	14	5	4	0
2	2	0	28	0	5	0
2	2	0	8	0	5	0
2	2	0	7	2	5	0
2	2	0	14	5	5	0
2	2	0	29	0	5	0
3	3	0	30	13	5	0
2	2	0	31	0	5	0
2	2	0	12	0	5	0
2	2	0	1	0	5	0
2	2	0	10	4	5	0
2	2	0	15	0	5	0
2	2	0	26	7	5	0
2	2	0	32	0	5	0
2	2	0	2	0	5	0
2	2	0	25	0	5	0
2
32
1	2	3	4	5	0	0	0	0	0	0	0	0	0	0	0	0	0	0	0
6	0	0	0	0	0	0	0	0	0	0	0	0	0	0	0	0	0	0	0
7	0	0	0	0	0	0	0	0	0	0	0	0	0	0	0	0	0	0	0
8	0	0	0	0	0	0	0	0	0	0	0	0	0	0	0	0	0	0	0
9	0	0	0	0	0	0	0	0	0	0	0	0	0	0	0	0	0	0	0
10	0	0	0	0	0	0	0	0	0	0	0	0	0	0	0	0	0	0	0
11	0	0	0	0	0	0	0	0	0	0	0	0	0	0	0	0	0	0	0
12	0	0	0	0	0	0	0	0	0	0	0	0	0	0	0	0	0	0	0
13	0	0	0	0	0	0	0	0	0	0	0	0	0	0	0	0	0	0	0
14	0	0	0	0	0	0	0	0	0	0	0	0	0	0	0	0	0	0	0
15	0	0	0	0	0	0	0	0	0	0	0	0	0	0	0	0	0	0	0
16	0	0	0	0	0	0	0	0	0	0	0	0	0	0	0	0	0	0	0
17	0	0	0	0	0	0	0	0	0	0	0	0	0	0	0	0	0	0	0
18	0	0	0	0	0	0	0	0	0	0	0	0	0	0	0	0	0	0	0
19	0	0	0	0	0	0	0	0	0	0	0	0	0	0	0	0	0	0	0
20	0	0	0	0	0	0	0	0	0	0	0	0	0	0	0	0	0	0	0
21	0	0	0	0	0	0	0	0	0	0	0	0	0	0	0	0	0	0	0
22	0	0	0	0	0	0	0	0	0	0	0	0	0	0	0	0	0	0	0
23	22	24	0	0	0	0	0	0	0	0	0	0	0	0	0	0	0	0	0
4	0	0	0	0	0	0	0	0	0	0	0	0	0	0	0	0	0	0	0
25	0	0	0	0	0	0	0	0	0	0	0	0	0	0	0	0	0	0	0
26	0	0	0	0	0	0	0	0	0	0	0	0	0	0	0	0	0	0	0
27	0	0	0	0	0	0	0	0	0	0	0	0	0	0	0	0	0	0	0
28	29	30	31	32	0	0	0	0	0	0	0	0	0	0	0	0	0	0	0
33	34	35	36	0	0	0	0	0	0	0	0	0	0	0	0	0	0	0	0
37	0	0	0	0	0	0	0	0	0	0	0	0	0	0	0	0	0	0	0
38	0	0	0	0	0	0	0	0	0	0	0	0	0	0	0	0	0	0	0
39	0	0	0	0	0	0	0	0	0	0	0	0	0	0	0	0	0	0	0
41	42	0	0	0	0	0	0	0	0	0	0	0	0	0	0	0	0	0	0
43	0	0	0	0	0	0	0	0	0	0	0	0	0	0	0	0	0	0	0
1	0	0	0	0	0	0	0	0	0	0	0	0	0	0	0	0	0	0	0
33	0	0	0	0	0	0	0	0	0	0	0	0	0	0	0	0	0	0	0
3
13
1	0	0	0	0
2	0	0	0	0
3	0	0	0	0
8	0	0	0	0
4	0	0	0	0
5	6	0	0	0
6	0	0	0	0
12	13	0	0	0
5	14	0	0	0
15	16	0	0	0
7	0	0	0	0
15	0	0	0	0
17	0	0	0	0
4
6
1	0	0	0	0
2	0	0	0	0
3	0	0	0	0
4	0	0	0	0
5	0	0	0	0
1	2	3	4	5
5
2
1	0	0	0	0
2	0	0	0	0
